HUN,8,6,397
1,26,2,20,0,4,3,1,4,15,5,14
0,11,1,20,2,11,5,10,3,17,4,2
1,9,2,1,0,12,4,20,5,25,3,24
0,2,2,19,1,26,5,26,4,7,3,3
2,28,0,5,1,9,5,29,4,19,3,25
0,15,2,29,1,1,5,15,4,10,3,2
1,25,0,18,2,28,3,3,4,21,5,13
2,2,0,8,1,2,4,30,5,13,3,14
